CMD:
./solvers/bin/cadical --plain --no-reduce -t 1600 ./data/cnfs//eijks444/eijks444.64.cnf

c --- [ banner ] -------------------------------------------------------------
c 
c CaDiCaL SAT Solver
c Copyright (c) 2016-2024
c A. Biere, M. Fleury, N. Froleyks, K. Fazekas, F. Pollitt, T. Faller
c JKU Linz, University of Freiburg, TU Wien
c 
c Version 2.1.3 5296d3d2a9bf48c154ab2acb5e44625776d821bf
c g++ (Gentoo 12.3.1_p20230526 p2) 12.3.1 20230526 -Wall -Wextra -O3 -DNDEBUG
c Sat Aug 9 07:26:21 PDT 2025 Linux cedar2.int.cedar.computecanada.ca 5.14.0-362.24.2.el9_3.x86_64 x86_64
c 
c --- [ limit ] --------------------------------------------------------------
c 
c setting time limit to 1600 seconds real time (due to '-t 1600')
c 
c --- [ parsing input ] ------------------------------------------------------
c 
c reading DIMACS file from './data/cnfs//eijks444/eijks444.64.cnf'
c opening file to read './data/cnfs//eijks444/eijks444.64.cnf'
c found 'p cnf 20077 59337' header
c parsed 59337 clauses in 0.01 seconds process time
c 
c --- [ options ] ------------------------------------------------------------
c 
c   --compact=false                (different from default 'true')
c   --decompose=false              (different from default 'true')
c   --deduplicate=false            (different from default 'true')
c   --elim=false                   (different from default 'true')
c   --probe=false                  (different from default 'true')
c   --reduce=false                 (different from default 'true')
c   --subsume=false                (different from default 'true')
c   --ternary=false                (different from default 'true')
c   --transred=false               (different from default 'true')
c   --vivify=false                 (different from default 'true')
c 
c --- [ solving ] ------------------------------------------------------------
c 
c time measured in process time since initialization
c 
c  seconds  reductions  redundant  irredundant
c         MB    restarts       trail      variables
c          level   conflicts       glue        remaining
c 
c *  0.01 13  0 0   0    0    0  0% 0 56910 17212 86%
c {  0.01 13  0 0   0    0    0  0% 0 56910 17212 86%
c i  0.03 13 58 0  47  707  651 39% 3 56910 17198 86%
c i  0.04 14 72 0  66  933  853 45% 3 56910 17196 86%
c }  0.04 14 75 0  68 1001  915 47% 3 56910 17196 86%
c [  0.04 14  0 0  68 1001  915  0% 0 56910 17196 86%
c O  0.04 14 58 0  68 1002  916 39% 4 56910 17196 86%
c ]  0.11 14 145 0  69 3001 2742 80% 7 56910 17196 86%
c {  0.11 14 75 0  69 3001 2742 47% 3 56910 17196 86%
c F  0.11 14 75 0  69 3004 2745 47% 3 56910 17196 86%
c i  0.12 14 70 0  86 3141 2868 47% 3 56910 17195 86%
c i  0.13 14 64 0 140 3364 3072 44% 3 56910 17194 86%
c i  0.13 14 63 0 141 3368 3075 44% 3 56910 17193 86%
c i  0.14 14 60 0 177 3558 3248 42% 3 56910 17192 86%
c i  0.14 14 59 0 184 3605 3291 42% 3 56910 17191 86%
c i  0.14 14 59 0 185 3608 3293 42% 3 56910 17190 86%
c i  0.14 14 59 0 189 3631 3311 42% 3 56910 17189 86%
c i  0.15 14 59 0 204 3743 3417 41% 3 56910 17101 85%
c i  0.16 14 56 0 253 4061 3706 41% 3 56910 17084 85%
c i  0.17 14 55 0 280 4407 4023 40% 3 56910 17083 85%
c 
c  seconds  reductions  redundant  irredundant
c         MB    restarts       trail      variables
c          level   conflicts       glue        remaining
c 
c i  0.17 14 55 0 282 4413 4028 40% 3 56910 17082 85%
c i  0.17 14 54 0 302 4495 4105 40% 3 56910 17081 85%
c i  0.18 14 54 0 309 4519 4126 40% 3 56910 17080 85%
c i  0.18 14 54 0 331 4649 4250 40% 3 56910 17079 85%
c i  0.19 14 53 0 373 4827 4419 40% 3 56910 17078 85%
c i  0.20 14 52 0 392 4936 4518 39% 3 56910 17077 85%
c i  0.21 15 56 0 426 5344 4898 42% 3 56910 17076 85%
c i  0.21 15 56 0 426 5345 4898 42% 3 56910 17075 85%
c i  0.21 15 56 0 426 5347 4899 42% 3 56910 17067 85%
c i  0.22 15 55 0 459 5585 5110 41% 3 56910 17058 85%
c i  0.25 15 54 0 520 5971 5469 41% 4 56910 17057 85%
c #  0.25 15 54 0 528 6005 5499 41% 4 56910 17057 85%
c i  0.25 15 54 0 537 6039 5532 41% 4 56910 17056 85%
c }  0.30 15 51 0 690 7003 6420 41% 4 56910 17056 85%
c [  0.30 15 145 0 690 7003 6420 80% 7 56910 17056 85%
c i  0.32 15 135 0 691 7399 6781 78% 7 56910 17055 85%
c i  0.32 15 135 0 691 7412 6789 78% 7 56910 17054 85%
c i  0.39 15 129 0 691 8836 8146 80% 10 56910 17053 85%
c i  0.42 16 128 0 692 9424 8710 79% 11 56910 17013 85%
c i  0.42 16 128 0 692 9440 8724 79% 11 56910 17012 85%
c 
c  seconds   reductions  redundant   irredundant
c         MB     restarts       trail       variables
c           level   conflicts       glue         remaining
c 
c i  0.44 16 127 0 692 9802 9060 79% 11 56910 17011 85%
c i  0.44 16 127 0 692 9804 9059 79% 11 56910 17010 85%
c I  0.45 16 128 0 692 10010 9229 79% 11 56910 17010 85%
c i  0.47 16 124 0 693 10420 9595 78% 11 56910 16996 85%
... skipped 202 lines ...
c W 73.76 132 28 0 26639 406051 271368 73% 10 38460 13495 67%
c F 81.28 132 26 0 28470 435052 297625 73% 10 38460 13495 67%
c i 81.28 132 26 0 28470 435092 297651 73% 10 38460 13483 67%
c i 82.95 132 27 0 28995 439578 301890 74% 10 38460 13475 67%
c i 83.53 132 26 0 29041 443742 305049 73% 10 38460 13421 67%
c i 85.37 132 26 0 29467 451783 312274 74% 10 38460 13420 67%
c i 85.38 132 26 0 29467 451870 312345 74% 10 38460 13410 67%
c i 85.45 132 26 0 29467 452264 312600 74% 10 38460 13392 67%
c i 86.85 132 25 0 29802 457392 317005 74% 10 38460 13365 67%
c B 89.41 133 25 0 30684 465053 324017 73% 10 38460 13365 67%
c i 90.99 133 25 0 31114 468740 327535 74% 10 38460 13355 67%
c W 98.93 138 24 0 33138 496056 298420 74% 10 37977 13355 67%
c i 99.84 138 24 0 33271 501469 302885 74% 10 37977 13321 66%
c } 102.35 138 23 0 33779 511010 311347 74% 10 37977 13321 66%
c 
c  seconds    reductions       redundant    irredundant
c           MB     restarts            trail       variables
c            level      conflicts          glue         remaining
c 
c [ 102.35 138 34 0 33779 511010 311347 77% 14 37977 13321 66%
c W 104.74 137 34 0 33779 528057 296615 77% 14 37850 13321 66%
c i 109.94 137 30 0 33791 558544 323004 77% 13 37850 13280 66%
c I 110.30 137 30 0 33793 561061 325365 77% 13 37850 13280 66%
c B 115.81 137 30 0 33808 595064 357299 78% 14 37850 13280 66%
c i 119.52 137 30 0 33810 618247 378829 78% 14 37850 13278 66%
c W 122.04 146 30 0 33816 630068 319521 78% 15 37689 13278 66%
c O 128.37 146 28 0 33832 666069 350934 78% 15 37689 13278 66%
c i 128.79 146 28 0 33833 668892 353245 78% 14 37689 13244 66%
c B 135.00 146 26 0 33841 703072 383467 78% 14 37689 13244 66%
c W 144.35 157 24 0 33843 741074 376638 77% 14 37567 13244 66%
c i 146.26 157 23 0 33843 750639 384127 77% 13 37567 12838 64%
c i 148.40 157 23 0 33843 755677 388265 76% 13 37567 12830 64%
c i 148.64 157 23 0 33843 756372 388768 76% 13 37567 12750 64%
c i 149.26 157 22 0 33843 758271 389987 76% 13 37567 12682 63%
c i 149.56 157 22 0 33843 758790 390273 76% 13 37567 12673 63%
c i 149.93 157 22 0 33843 760061 391113 76% 13 37567 12502 62%
c i 150.03 157 22 0 33843 760396 391221 76% 13 37567 12281 61%
c i 150.04 157 22 0 33843 760414 391229 76% 13 37567 7356 37%
c i 150.04 157 22 0 33843 760416 391230 76% 13 37567 5632 28%
c 
c  seconds    reductions       redundant    irredundant
c           MB     restarts            trail      variables
c            level      conflicts          glue        remaining
c 
c ] 150.04 157 22 0 33843 760418 391230 76% 13 37567 5408 27%
c 0 150.04 157 22 0 33843 760418 391230 76% 13 37567 5408 27%
c 
c --- [ result ] -------------------------------------------------------------
c 
s UNSATISFIABLE
c 
c --- [ run-time profiling ] -------------------------------------------------
c 
c process time taken by individual solving procedures
c (percentage relative to process time for solving)
c 
c       150.03  100.00% search
c        84.65   56.42% unstable
c        63.98   42.65% stable
c         1.40    0.93% walk
c         0.01    0.01% parse
c         0.00    0.00% lucky
c         0.00    0.00% simplify
c   =================================
c       150.03   99.99% solve
c 
c last line shows process time for solving
c (percentage relative to total process time)
c 
c --- [ statistics ] ---------------------------------------------------------
c 
c chronological:            131241        17.26 %  of conflicts
c conflicts:                760418      5068.39    per second
c decisions:               1967182     13111.80    per second
c fixed:                     14669        73.06 %  of all variables
c learned:                  748197        98.39 %  per conflict
c learned_lits:           78463270       100.00 %  learned literals
c minimized:                     0         0.00 %  learned literals
c shrunken:               16462965        20.98 %  learned literals
c minishrunken:           24859890        31.68 %  learned literals
c otfs:                       2180         0.29 %  of conflict
c propagations:          599941413         4.00 M  per second
c rephased:                     38     20011.00    interval
c restarts:                  33843        22.47    interval
c stabilizing:                   5        55.15 %  of conflicts
c subsumed:                  61225         7.61 %  of all clauses
c strengthened:               2128         0.26 %  of all clauses
c walked:                       12     63368.17    interval
c 
c seconds are measured in process time for solving
c 
c --- [ resources ] ----------------------------------------------------------
c 
c total process time since initialization:       150.04    seconds
c total real time since initialization:          150.52    seconds
c maximum resident set size of process:          226.00    MB
c 
c --- [ shutting down ] ------------------------------------------------------
c 
c exit 20
